
Gurobi 10.0.1 (win64) logging started Thu Oct  5 12:31:52 2023

Set parameter LogFile to value "./results//log/BA_10_deadline_heurFalse.log"
Gurobi Optimizer version 10.0.1 build v10.0.1rc0 (win64)

CPU model: AMD Ryzen 7 3700X 8-Core Processor, instruction set [SSE2|AVX|AVX2]
Thread count: 8 physical cores, 16 logical processors, using up to 16 threads

Optimize a model with 230 rows, 201 columns and 812 nonzeros
Model fingerprint: 0x53879a62
Model has 1 quadratic constraint
Variable types: 0 continuous, 201 integer (176 binary)
Coefficient statistics:
  Matrix range     [1e+00, 1e+07]
  QMatrix range    [1e+00, 1e+00]
  QLMatrix range   [1e+00, 1e+01]
  Objective range  [1e+00, 1e+00]
  Bounds range     [1e+00, 1e+00]
  RHS range        [1e+00, 3e+07]
Presolve removed 52 rows and 114 columns
Presolve time: 0.00s
Presolved: 187 rows, 95 columns, 775 nonzeros
Variable types: 0 continuous, 95 integer (62 binary)

Root relaxation: objective 0.000000e+00, 34 iterations, 0.00 seconds (0.00 work units)

    Nodes    |    Current Node    |     Objective Bounds      |     Work
 Expl Unexpl |  Obj  Depth IntInf | Incumbent    BestBd   Gap | It/Node Time

     0     0    0.00000    0    1          -    0.00000      -     -    0s
H    0     0                      51.0000000    0.00000   100%     -    0s
H    0     0                      42.0000000    0.00000   100%     -    0s
     0     0    0.00000    0   11   42.00000    0.00000   100%     -    0s
     0     0    0.00000    0    6   42.00000    0.00000   100%     -    0s
     0     0    0.00000    0    6   42.00000    0.00000   100%     -    0s
     0     0    0.00000    0   16   42.00000    0.00000   100%     -    0s
     0     0    0.00000    0    1   42.00000    0.00000   100%     -    0s
H    0     0                      41.0000000    0.00000   100%     -    0s
     0     0    0.00000    0   22   41.00000    0.00000   100%     -    0s
H    0     0                      39.0000000    1.02817  97.4%     -    0s
     0     0    1.02817    0    5   39.00000    1.02817  97.4%     -    0s
     0     0    2.00000    0    7   39.00000    2.00000  94.9%     -    0s
     0     0    2.00000    0    7   39.00000    2.00000  94.9%     -    0s
     0     0    2.00000    0   12   39.00000    2.00000  94.9%     -    0s
H    0     0                      38.0000000    2.00000  94.7%     -    0s
     0     0    2.00000    0   16   38.00000    2.00000  94.7%     -    0s
H    0     0                      36.0000000    2.00000  94.4%     -    0s
     0     0    3.46154    0    7   36.00000    3.46154  90.4%     -    0s
H    0     0                      30.0000000    3.46154  88.5%     -    0s
     0     0    3.46154    0   17   30.00000    3.46154  88.5%     -    0s
     0     0    3.46154    0   18   30.00000    3.46154  88.5%     -    0s
     0     0    3.46154    0   13   30.00000    3.46154  88.5%     -    0s
     0     0    3.46154    0   12   30.00000    3.46154  88.5%     -    0s
     0     0    3.46154    0   11   30.00000    3.46154  88.5%     -    0s
     0     0    3.46154    0    8   30.00000    3.46154  88.5%     -    0s
     0     0    3.46154    0    8   30.00000    3.46154  88.5%     -    0s
     0     1    3.46154    0    8   30.00000    3.46154  88.5%     -    0s
H15315   134                      29.0000000    6.00000  79.3%   0.1    0s

Cutting planes:
  Cover: 1
  Implied bound: 3
  Projected implied bound: 1
  Flow cover: 1

Explored 17464 nodes (25539 simplex iterations) in 0.72 seconds (0.32 work units)
Thread count was 16 (of 16 available processors)

Solution count 8: 29 30 36 ... 51

Optimal solution found (tolerance 1.00e-04)
Best objective 2.900000000000e+01, best bound 2.900000000000e+01, gap 0.0000%
Warning: constraint name "precedence between 0,0 to 0,2 if x_[0,0,0,2,3]=0, i.e. 0,2 before 0,0" has a space
Warning: constraint name "precedence between 0,0 to 0,2 if x_[0,0,0,2,3]=0, i.e. 0,2 before 0,0" has a space
Warning: default constraint names used to write mps file
